c Arquivo convertido de cubic_500.txt
p edge 500 750
e 0 200
e 0 242
e 0 371
e 1 52
e 1 85
e 1 161
e 2 128
e 2 171
e 2 356
e 3 8
e 3 31
e 3 395
e 4 97
e 4 449
e 4 455
e 5 161
e 5 267
e 5 479
e 6 30
e 6 79
e 6 297
e 7 101
e 7 474
e 7 482
e 8 33
e 8 474
e 9 115
e 9 430
e 9 451
e 10 108
e 10 378
e 10 427
e 11 182
e 11 388
e 11 433
e 12 138
e 12 388
e 12 484
e 13 268
e 13 312
e 13 427
e 14 27
e 14 213
e 14 472
e 15 127
e 15 173
e 15 487
e 16 230
e 16 386
e 16 408
e 17 268
e 17 293
e 17 321
e 18 209
e 18 366
e 18 382
e 19 35
e 19 181
e 19 410
e 20 134
e 20 382
e 20 478
e 21 38
e 21 152
e 21 331
e 22 316
e 22 448
e 22 479
e 23 107
e 23 166
e 23 416
e 24 222
e 24 265
e 24 476
e 25 41
e 25 135
e 25 362
e 26 82
e 26 121
e 26 180
e 27 336
e 27 400
e 28 58
e 28 131
e 28 415
e 29 82
e 29 159
e 29 419
e 30 96
e 30 248
e 31 245
e 31 463
e 32 120
e 32 292
e 32 366
e 33 48
e 33 60
e 34 62
e 34 285
e 34 325
e 35 199
e 35 486
e 36 304
e 36 314
e 36 477
e 37 234
e 37 265
e 37 324
e 38 40
e 38 217
e 39 92
e 39 258
e 39 426
e 40 56
e 40 390
e 41 306
e 41 423
e 42 90
e 42 153
e 42 397
e 43 72
e 43 271
e 43 332
e 44 138
e 44 342
e 44 448
e 45 85
e 45 195
e 45 241
e 46 104
e 46 286
e 46 403
e 47 92
e 47 270
e 47 337
e 48 61
e 48 180
e 49 130
e 49 245
e 49 315
e 50 156
e 50 177
e 50 215
e 51 146
e 51 323
e 51 395
e 52 221
e 52 440
e 53 72
e 53 151
e 53 156
e 54 313
e 54 318
e 54 319
e 55 235
e 55 274
e 55 463
e 56 133
e 56 260
e 57 163
e 57 347
e 57 481
e 58 71
e 58 281
e 59 283
e 59 340
e 59 417
e 60 229
e 60 411
e 61 355
e 61 465
e 62 315
e 62 370
e 63 125
e 63 369
e 63 416
e 64 110
e 64 128
e 64 296
e 65 102
e 65 278
e 65 346
e 66 230
e 66 309
e 66 476
e 67 74
e 67 333
e 67 347
e 68 152
e 68 361
e 68 386
e 69 227
e 69 234
e 69 242
e 70 277
e 70 282
e 70 331
e 71 177
e 71 226
e 72 202
e 73 114
e 73 319
e 73 457
e 74 119
e 74 247
e 75 131
e 75 325
e 75 434
e 76 218
e 76 417
e 76 445
e 77 247
e 77 444
e 77 460
e 78 190
e 78 251
e 78 329
e 79 219
e 79 280
e 80 204
e 80 209
e 80 385
e 81 105
e 81 114
e 81 446
e 82 101
e 83 132
e 83 140
e 83 459
e 84 104
e 84 376
e 84 409
e 85 374
e 86 233
e 86 258
e 86 326
e 87 337
e 87 437
e 87 483
e 88 148
e 88 236
e 88 382
e 89 163
e 89 435
e 89 499
e 90 111
e 90 364
e 91 354
e 91 399
e 91 405
e 92 363
e 93 415
e 93 471
e 93 498
e 94 111
e 94 169
e 94 419
e 95 183
e 95 194
e 95 256
e 96 218
e 96 250
e 97 215
e 97 231
e 98 172
e 98 432
e 98 436
e 99 122
e 99 419
e 99 429
e 100 404
e 100 437
e 100 468
e 101 183
e 102 299
e 102 326
e 103 396
e 103 439
e 103 470
e 104 179
e 105 369
e 105 487
e 106 229
e 106 248
e 106 273
e 107 154
e 107 344
e 108 456
e 108 488
e 109 261
e 109 381
e 109 475
e 110 164
e 110 210
e 111 112
e 112 418
e 112 479
e 113 171
e 113 442
e 113 485
e 114 124
e 115 224
e 115 287
e 116 170
e 116 305
e 116 482
e 117 182
e 117 183
e 117 443
e 118 245
e 118 392
e 118 431
e 119 280
e 119 460
e 120 340
e 120 486
e 121 191
e 121 456
e 122 173
e 122 211
e 123 294
e 123 343
e 123 476
e 124 259
e 124 332
e 125 384
e 125 499
e 126 307
e 126 402
e 126 422
e 127 241
e 127 292
e 128 360
e 129 167
e 129 225
e 129 260
e 130 341
e 130 345
e 131 214
e 132 234
e 132 307
e 133 354
e 133 375
e 134 324
e 134 401
e 135 288
e 135 306
e 136 223
e 136 239
e 136 439
e 137 275
e 137 318
e 137 332
e 138 394
e 139 148
e 139 218
e 139 316
e 140 177
e 140 493
e 141 149
e 141 224
e 141 433
e 142 210
e 142 308
e 142 375
e 143 266
e 143 334
e 143 496
e 144 314
e 144 420
e 144 453
e 145 187
e 145 299
e 145 475
e 146 271
e 146 287
e 147 222
e 147 282
e 147 394
e 148 210
e 149 219
e 149 428
e 150 277
e 150 343
e 150 385
e 151 224
e 151 267
e 152 391
e 153 166
e 153 353
e 154 157
e 154 465
e 155 302
e 155 314
e 155 358
e 156 451
e 157 219
e 157 458
e 158 193
e 158 329
e 158 330
e 159 294
e 159 448
e 160 188
e 160 299
e 160 442
e 161 418
e 162 279
e 162 335
e 162 341
e 163 480
e 164 208
e 164 466
e 165 240
e 165 441
e 165 454
e 166 321
e 167 173
e 167 370
e 168 223
e 168 246
e 168 471
e 169 193
e 169 253
e 170 308
e 170 408
e 171 404
e 172 205
e 172 361
e 174 360
e 174 413
e 174 474
e 175 209
e 175 212
e 175 296
e 176 181
e 176 340
e 176 478
e 178 201
e 178 248
e 178 336
e 179 281
e 179 284
e 180 447
e 181 280
e 182 381
e 184 239
e 184 379
e 184 452
e 185 353
e 185 355
e 185 402
e 186 289
e 186 322
e 186 351
e 187 260
e 187 458
e 188 215
e 188 253
e 189 362
e 189 388
e 189 455
e 190 205
e 190 321
e 191 330
e 191 426
e 192 434
e 192 460
e 192 462
e 193 328
e 194 197
e 194 399
e 195 374
e 195 466
e 196 207
e 196 269
e 196 362
e 197 383
e 197 407
e 198 235
e 198 450
e 198 495
e 199 206
e 199 461
e 200 365
e 200 431
e 201 259
e 201 384
e 202 373
e 202 446
e 203 385
e 203 391
e 203 437
e 204 206
e 204 357
e 205 338
e 206 264
e 207 377
e 207 450
e 208 398
e 208 487
e 211 239
e 211 325
e 212 483
e 212 493
e 213 302
e 213 311
e 214 355
e 214 402
e 216 233
e 216 310
e 216 317
e 217 443
e 217 493
e 220 320
e 220 440
e 220 454
e 221 320
e 221 498
e 222 228
e 223 367
e 225 380
e 225 477
e 226 273
e 226 275
e 227 256
e 227 304
e 228 249
e 228 412
e 229 414
e 230 492
e 231 327
e 231 393
e 232 406
e 232 432
e 232 459
e 233 306
e 235 368
e 236 396
e 236 470
e 237 300
e 237 392
e 237 429
e 238 377
e 238 416
e 238 467
e 240 244
e 240 462
e 241 318
e 242 481
e 243 349
e 243 383
e 243 425
e 244 284
e 244 319
e 246 350
e 246 364
e 247 287
e 249 348
e 249 380
e 250 286
e 250 439
e 251 266
e 251 317
e 252 342
e 252 387
e 252 436
e 253 276
e 254 269
e 254 311
e 254 405
e 255 379
e 255 433
e 255 491
e 256 415
e 257 261
e 257 267
e 257 312
e 258 291
e 259 278
e 261 335
e 262 338
e 262 367
e 262 475
e 263 346
e 263 399
e 263 446
e 264 337
e 264 488
e 265 352
e 266 361
e 268 424
e 269 484
e 270 274
e 270 456
e 271 482
e 272 353
e 272 472
e 272 489
e 273 323
e 274 371
e 275 401
e 276 283
e 276 430
e 277 495
e 278 457
e 279 409
e 279 477
e 281 464
e 282 417
e 283 365
e 284 305
e 285 289
e 285 468
e 286 389
e 288 352
e 288 431
e 289 407
e 290 411
e 290 438
e 290 470
e 291 397
e 291 403
e 292 414
e 293 430
e 293 445
e 294 496
e 295 309
e 295 383
e 295 435
e 296 395
e 297 420
e 297 421
e 298 329
e 298 422
e 298 467
e 300 369
e 300 400
e 301 372
e 301 396
e 301 414
e 302 339
e 303 348
e 303 366
e 303 440
e 304 310
e 305 406
e 307 345
e 308 327
e 309 461
e 310 347
e 311 351
e 312 436
e 313 390
e 313 413
e 315 394
e 316 494
e 317 447
e 320 425
e 322 343
e 322 473
e 323 427
e 324 498
e 326 330
e 327 409
e 328 418
e 328 450
e 331 392
e 333 381
e 333 491
e 334 420
e 334 453
e 335 359
e 336 412
e 338 494
e 339 372
e 339 429
e 341 492
e 342 434
e 344 412
e 344 442
e 345 462
e 346 356
e 348 497
e 349 372
e 349 398
e 350 422
e 350 457
e 351 469
e 352 488
e 354 410
e 356 373
e 357 364
e 357 404
e 358 441
e 358 453
e 359 367
e 359 444
e 360 496
e 363 428
e 363 463
e 365 389
e 368 400
e 368 469
e 370 444
e 371 421
e 373 499
e 374 405
e 375 486
e 376 410
e 376 492
e 377 379
e 378 423
e 378 473
e 380 472
e 384 469
e 386 389
e 387 411
e 387 423
e 390 449
e 391 447
e 393 428
e 393 497
e 397 465
e 398 480
e 401 495
e 403 485
e 406 489
e 407 438
e 408 481
e 413 483
e 421 424
e 424 490
e 425 441
e 426 452
e 432 458
e 435 489
e 438 459
e 443 467
e 445 471
e 449 480
e 451 464
e 452 494
e 454 468
e 455 473
e 461 497
e 464 466
e 478 485
e 484 490
e 490 491
